experiments/vl_chuffed/detailed-output/inst-14-942080517.param
language Essence 1.3

letting class be function(1 --> 2, 2 --> 3, 3 --> 6, 4 --> 1, 5 --> 7, 6 --> 1, 7 --> 4, 8 --> 5)
letting deck_length be 77
letting deck_width be 69
letting length be function(1 --> 2, 2 --> 22, 3 --> 3, 4 --> 41, 5 --> 3, 6 --> 5, 7 --> 2, 8 --> 1)
letting n_classes be 7
letting n_containers be 8
letting separation be function({2, 5} --> 27)
letting width be function(1 --> 66, 2 --> 65, 3 --> 21, 4 --> 46, 5 --> 25, 6 --> 25, 7 --> 48, 8 --> 33)
